# Solution for model optimality_model
# Objective value = 1.9801507558186719e+02
y[0,1,8.0] 0
y[0,1,8.5] 1
y[0,1,9.0] 1
y[0,1,9.5] 1
y[0,1,10.0] 1
y[0,1,10.5] 1
y[0,1,11.0] 1
y[0,1,11.5] 1
y[0,1,12.0] 1
y[0,1,12.5] 1
y[0,1,13.0] 1
y[0,1,13.5] 1
y[0,1,14.0] 1
y[0,1,14.5] 1
y[0,1,15.0] 1
y[0,1,15.5] 1
y[0,1,32.0] 0
y[0,1,32.5] 1
y[0,1,33.0] 1
y[0,1,33.5] 1
y[0,1,34.0] 1
y[0,1,34.5] 1
y[0,1,35.0] 1
y[0,1,35.5] 1
y[0,1,36.0] 1
y[0,1,36.5] 1
y[0,1,37.0] 1
y[0,1,37.5] 1
y[0,1,38.0] 1
y[0,1,38.5] 1
y[0,1,39.0] 1
y[0,1,39.5] 0
y[0,1,55.5] 0
y[0,1,56.0] 0
y[0,1,56.5] 1
y[0,1,57.0] 1
y[0,1,57.5] 1
y[0,1,58.0] 1
y[0,1,58.5] 1
y[0,1,59.0] 1
y[0,1,59.5] 1
y[0,1,60.0] 1
y[0,1,60.5] 1
y[0,1,61.0] 1
y[0,1,61.5] 1
y[0,1,62.0] 1
y[0,1,62.5] 1
y[0,1,63.0] 1
y[0,1,63.5] 1
y[0,1,79.5] 1
y[0,1,80.0] 1
y[0,1,80.5] 1
y[0,1,81.0] 1
y[0,1,81.5] 1
y[0,1,82.0] 1
y[0,1,82.5] 1
y[0,1,83.0] 1
y[0,1,83.5] 1
y[0,1,84.0] 1
y[0,1,84.5] 1
y[0,1,85.0] 1
y[0,1,85.5] 1
y[0,1,86.0] 1
y[0,1,86.5] 1
y[0,1,87.0] 1
y[0,1,87.5] 1
y[0,1,103.5] 0
y[0,1,104.0] 0
y[0,1,104.5] 0
y[0,1,105.0] 0
y[0,1,105.5] 0
y[0,1,106.0] 0
y[0,1,106.5] 0
y[0,1,107.0] 0
y[0,1,107.5] 0
y[0,1,108.0] 0
y[0,1,108.5] 0
y[0,1,109.0] 0
y[0,1,109.5] 0
y[0,1,110.0] 0
y[0,1,110.5] 0
y[0,1,111.0] 0
y[0,1,111.5] 0
y[0,1,127.5] 0
y[0,1,128.0] 0
y[0,1,128.5] 0
y[0,1,129.0] 0
y[0,1,129.5] 0
y[0,1,130.0] 0
y[0,1,130.5] 0
y[0,1,131.0] 0
y[0,1,131.5] 0
y[0,1,132.0] 0
y[0,1,132.5] 0
y[0,1,133.0] 0
y[0,1,133.5] 0
y[0,1,134.0] 0
y[0,1,134.5] 0
y[0,1,135.0] 0
y[0,1,135.5] 0
y[0,1,151.5] 0
y[0,1,152.0] 0
y[0,1,152.5] 0
y[0,1,153.0] 0
y[0,1,153.5] 0
y[0,1,154.0] 0
y[0,1,154.5] 0
y[0,1,155.0] 0
y[0,1,155.5] 0
y[0,1,156.0] 0
y[0,1,156.5] 0
y[0,1,157.0] 0
y[0,1,157.5] 0
y[0,1,158.0] 0
y[0,1,158.5] 0
y[0,1,159.0] 0
y[0,1,159.5] 0
y[0,2,8.0] 0
y[0,2,8.5] 0
y[0,2,9.0] 0
y[0,2,9.5] 0
y[0,2,10.0] 0
y[0,2,10.5] 0
y[0,2,11.0] 0
y[0,2,11.5] 0
y[0,2,12.0] 0
y[0,2,12.5] 0
y[0,2,13.0] 0
y[0,2,13.5] 0
y[0,2,14.0] 0
y[0,2,14.5] 0
y[0,2,15.0] 0
y[0,2,15.5] 0
y[0,2,32.0] 0
y[0,2,32.5] 0
y[0,2,33.0] 0
y[0,2,33.5] 0
y[0,2,34.0] 0
y[0,2,34.5] 0
y[0,2,35.0] 0
y[0,2,35.5] 0
y[0,2,36.0] 0
y[0,2,36.5] 0
y[0,2,37.0] 0
y[0,2,37.5] 0
y[0,2,38.0] 0
y[0,2,38.5] 0
y[0,2,39.0] 0
y[0,2,39.5] 0
y[0,2,55.5] 0
y[0,2,56.0] 0
y[0,2,56.5] 0
y[0,2,57.0] 0
y[0,2,57.5] 0
y[0,2,58.0] 0
y[0,2,58.5] 0
y[0,2,59.0] 0
y[0,2,59.5] 0
y[0,2,60.0] 0
y[0,2,60.5] 0
y[0,2,61.0] 0
y[0,2,61.5] 0
y[0,2,62.0] 0
y[0,2,62.5] 0
y[0,2,63.0] 0
y[0,2,63.5] 0
y[0,2,79.5] 1
y[0,2,80.0] 1
y[0,2,80.5] 1
y[0,2,81.0] 1
y[0,2,81.5] 1
y[0,2,82.0] 1
y[0,2,82.5] 1
y[0,2,83.0] 1
y[0,2,83.5] 1
y[0,2,84.0] 1
y[0,2,84.5] 1
y[0,2,85.0] 1
y[0,2,85.5] 1
y[0,2,86.0] 1
y[0,2,86.5] 1
y[0,2,87.0] 1
y[0,2,87.5] 1
y[0,2,103.5] 1
y[0,2,104.0] 1
y[0,2,104.5] 1
y[0,2,105.0] 1
y[0,2,105.5] 1
y[0,2,106.0] 1
y[0,2,106.5] 1
y[0,2,107.0] 1
y[0,2,107.5] 1
y[0,2,108.0] 1
y[0,2,108.5] 1
y[0,2,109.0] 1
y[0,2,109.5] 1
y[0,2,110.0] 1
y[0,2,110.5] 1
y[0,2,111.0] 1
y[0,2,111.5] 1
y[0,2,127.5] 1
y[0,2,128.0] 1
y[0,2,128.5] 1
y[0,2,129.0] 1
y[0,2,129.5] 1
y[0,2,130.0] 1
y[0,2,130.5] 1
y[0,2,131.0] 1
y[0,2,131.5] 1
y[0,2,132.0] 1
y[0,2,132.5] 1
y[0,2,133.0] 1
y[0,2,133.5] 1
y[0,2,134.0] 1
y[0,2,134.5] 1
y[0,2,135.0] 1
y[0,2,135.5] 1
y[0,2,151.5] 1
y[0,2,152.0] 1
y[0,2,152.5] 1
y[0,2,153.0] 1
y[0,2,153.5] 1
y[0,2,154.0] 1
y[0,2,154.5] 1
y[0,2,155.0] 1
y[0,2,155.5] 1
y[0,2,156.0] 1
y[0,2,156.5] 1
y[0,2,157.0] 1
y[0,2,157.5] 1
y[0,2,158.0] 1
y[0,2,158.5] 1
y[0,2,159.0] 1
y[0,2,159.5] 0
y[0,3,8.0] 1
y[0,3,8.5] 1
y[0,3,9.0] 1
y[0,3,9.5] 1
y[0,3,10.0] 1
y[0,3,10.5] 1
y[0,3,11.0] 1
y[0,3,11.5] 1
y[0,3,12.0] 1
y[0,3,12.5] 1
y[0,3,13.0] 1
y[0,3,13.5] 1
y[0,3,14.0] 1
y[0,3,14.5] 1
y[0,3,15.0] 1
y[0,3,15.5] 0
y[0,3,32.0] 0
y[0,3,32.5] 0
y[0,3,33.0] 0
y[0,3,33.5] 0
y[0,3,34.0] 0
y[0,3,34.5] 0
y[0,3,35.0] 0
y[0,3,35.5] 0
y[0,3,36.0] 0
y[0,3,36.5] 0
y[0,3,37.0] 0
y[0,3,37.5] 0
y[0,3,38.0] 0
y[0,3,38.5] 0
y[0,3,39.0] 0
y[0,3,39.5] 0
y[0,3,55.5] 0
y[0,3,56.0] 0
y[0,3,56.5] 0
y[0,3,57.0] 0
y[0,3,57.5] 0
y[0,3,58.0] 0
y[0,3,58.5] 0
y[0,3,59.0] 0
y[0,3,59.5] 0
y[0,3,60.0] 0
y[0,3,60.5] 0
y[0,3,61.0] 0
y[0,3,61.5] 0
y[0,3,62.0] 0
y[0,3,62.5] 0
y[0,3,63.0] 0
y[0,3,63.5] 0
y[0,3,79.5] 0
y[0,3,80.0] 0
y[0,3,80.5] 0
y[0,3,81.0] 0
y[0,3,81.5] 0
y[0,3,82.0] 0
y[0,3,82.5] 0
y[0,3,83.0] 0
y[0,3,83.5] 0
y[0,3,84.0] 0
y[0,3,84.5] 0
y[0,3,85.0] 0
y[0,3,85.5] 0
y[0,3,86.0] 0
y[0,3,86.5] 0
y[0,3,87.0] 0
y[0,3,87.5] 0
y[0,3,103.5] 0
y[0,3,104.0] 1
y[0,3,104.5] 1
y[0,3,105.0] 1
y[0,3,105.5] 1
y[0,3,106.0] 1
y[0,3,106.5] 1
y[0,3,107.0] 1
y[0,3,107.5] 1
y[0,3,108.0] 1
y[0,3,108.5] 1
y[0,3,109.0] 1
y[0,3,109.5] 1
y[0,3,110.0] 1
y[0,3,110.5] 1
y[0,3,111.0] 1
y[0,3,111.5] 0
y[0,3,127.5] 0
y[0,3,128.0] 1
y[0,3,128.5] 1
y[0,3,129.0] 1
y[0,3,129.5] 1
y[0,3,130.0] 1
y[0,3,130.5] 1
y[0,3,131.0] 1
y[0,3,131.5] 1
y[0,3,132.0] 1
y[0,3,132.5] 1
y[0,3,133.0] 1
y[0,3,133.5] 1
y[0,3,134.0] 1
y[0,3,134.5] 1
y[0,3,135.0] 1
y[0,3,135.5] 1
y[0,3,151.5] 0
y[0,3,152.0] 1
y[0,3,152.5] 1
y[0,3,153.0] 1
y[0,3,153.5] 1
y[0,3,154.0] 1
y[0,3,154.5] 1
y[0,3,155.0] 1
y[0,3,155.5] 1
y[0,3,156.0] 1
y[0,3,156.5] 1
y[0,3,157.0] 1
y[0,3,157.5] 1
y[0,3,158.0] 1
y[0,3,158.5] 1
y[0,3,159.0] 1
y[0,3,159.5] 1
y[0,4,8.0] 0
y[0,4,8.5] 0
y[0,4,9.0] 0
y[0,4,9.5] 0
y[0,4,10.0] 0
y[0,4,10.5] 0
y[0,4,11.0] 0
y[0,4,11.5] 0
y[0,4,12.0] 0
y[0,4,12.5] 0
y[0,4,13.0] 0
y[0,4,13.5] 0
y[0,4,14.0] 0
y[0,4,14.5] 0
y[0,4,15.0] 0
y[0,4,15.5] 0
y[0,4,32.0] 1
y[0,4,32.5] 1
y[0,4,33.0] 1
y[0,4,33.5] 1
y[0,4,34.0] 1
y[0,4,34.5] 1
y[0,4,35.0] 1
y[0,4,35.5] 1
y[0,4,36.0] 1
y[0,4,36.5] 1
y[0,4,37.0] 1
y[0,4,37.5] 1
y[0,4,38.0] 1
y[0,4,38.5] 1
y[0,4,39.0] 1
y[0,4,39.5] 1
y[0,4,55.5] 1
y[0,4,56.0] 1
y[0,4,56.5] 1
y[0,4,57.0] 1
y[0,4,57.5] 1
y[0,4,58.0] 1
y[0,4,58.5] 1
y[0,4,59.0] 1
y[0,4,59.5] 1
y[0,4,60.0] 1
y[0,4,60.5] 1
y[0,4,61.0] 1
y[0,4,61.5] 1
y[0,4,62.0] 1
y[0,4,62.5] 1
y[0,4,63.0] 1
y[0,4,63.5] 1
y[0,4,79.5] 0
y[0,4,80.0] 0
y[0,4,80.5] 0
y[0,4,81.0] 0
y[0,4,81.5] 0
y[0,4,82.0] 0
y[0,4,82.5] 0
y[0,4,83.0] 0
y[0,4,83.5] 0
y[0,4,84.0] 0
y[0,4,84.5] 0
y[0,4,85.0] 0
y[0,4,85.5] 0
y[0,4,86.0] 0
y[0,4,86.5] 0
y[0,4,87.0] 0
y[0,4,87.5] 0
y[0,4,103.5] 0
y[0,4,104.0] 0
y[0,4,104.5] 0
y[0,4,105.0] 0
y[0,4,105.5] 0
y[0,4,106.0] 0
y[0,4,106.5] 0
y[0,4,107.0] 0
y[0,4,107.5] 0
y[0,4,108.0] 0
y[0,4,108.5] 0
y[0,4,109.0] 0
y[0,4,109.5] 0
y[0,4,110.0] 0
y[0,4,110.5] 0
y[0,4,111.0] 0
y[0,4,111.5] 0
y[0,4,127.5] 0
y[0,4,128.0] 0
y[0,4,128.5] 0
y[0,4,129.0] 0
y[0,4,129.5] 0
y[0,4,130.0] 0
y[0,4,130.5] 0
y[0,4,131.0] 0
y[0,4,131.5] 0
y[0,4,132.0] 0
y[0,4,132.5] 0
y[0,4,133.0] 0
y[0,4,133.5] 0
y[0,4,134.0] 0
y[0,4,134.5] 0
y[0,4,135.0] 0
y[0,4,135.5] 0
y[0,4,151.5] 0
y[0,4,152.0] 0
y[0,4,152.5] 0
y[0,4,153.0] 0
y[0,4,153.5] 0
y[0,4,154.0] 0
y[0,4,154.5] 0
y[0,4,155.0] 0
y[0,4,155.5] 0
y[0,4,156.0] 0
y[0,4,156.5] 0
y[0,4,157.0] 0
y[0,4,157.5] 0
y[0,4,158.0] 0
y[0,4,158.5] 0
y[0,4,159.0] 0
y[0,4,159.5] 0
y[0,5,8.0] 0
y[0,5,8.5] 0
y[0,5,9.0] 0
y[0,5,9.5] 0
y[0,5,10.0] 0
y[0,5,10.5] 0
y[0,5,11.0] 0
y[0,5,11.5] 0
y[0,5,12.0] 0
y[0,5,12.5] 0
y[0,5,13.0] 0
y[0,5,13.5] 0
y[0,5,14.0] 0
y[0,5,14.5] 0
y[0,5,15.0] 0
y[0,5,15.5] 0
y[0,5,32.0] 0
y[0,5,32.5] 0
y[0,5,33.0] 0
y[0,5,33.5] 0
y[0,5,34.0] 0
y[0,5,34.5] 0
y[0,5,35.0] 0
y[0,5,35.5] 0
y[0,5,36.0] 0
y[0,5,36.5] 0
y[0,5,37.0] 0
y[0,5,37.5] 0
y[0,5,38.0] 0
y[0,5,38.5] 0
y[0,5,39.0] 0
y[0,5,39.5] 0
y[0,5,55.5] 0
y[0,5,56.0] 0
y[0,5,56.5] 0
y[0,5,57.0] 0
y[0,5,57.5] 0
y[0,5,58.0] 0
y[0,5,58.5] 0
y[0,5,59.0] 0
y[0,5,59.5] 0
y[0,5,60.0] 0
y[0,5,60.5] 0
y[0,5,61.0] 0
y[0,5,61.5] 0
y[0,5,62.0] 0
y[0,5,62.5] 0
y[0,5,63.0] 0
y[0,5,63.5] 0
y[0,5,79.5] 0
y[0,5,80.0] 0
y[0,5,80.5] 1
y[0,5,81.0] 1
y[0,5,81.5] 1
y[0,5,82.0] 1
y[0,5,82.5] 1
y[0,5,83.0] 1
y[0,5,83.5] 1
y[0,5,84.0] 1
y[0,5,84.5] 1
y[0,5,85.0] 1
y[0,5,85.5] 1
y[0,5,86.0] 1
y[0,5,86.5] 1
y[0,5,87.0] 1
y[0,5,87.5] 0
y[0,5,103.5] 1
y[0,5,104.0] 1
y[0,5,104.5] 1
y[0,5,105.0] 1
y[0,5,105.5] 1
y[0,5,106.0] 1
y[0,5,106.5] 1
y[0,5,107.0] 1
y[0,5,107.5] 1
y[0,5,108.0] 1
y[0,5,108.5] 1
y[0,5,109.0] 1
y[0,5,109.5] 1
y[0,5,110.0] 1
y[0,5,110.5] 1
y[0,5,111.0] 1
y[0,5,111.5] 1
y[0,5,127.5] 0
y[0,5,128.0] 0
y[0,5,128.5] 1
y[0,5,129.0] 1
y[0,5,129.5] 1
y[0,5,130.0] 1
y[0,5,130.5] 1
y[0,5,131.0] 1
y[0,5,131.5] 1
y[0,5,132.0] 1
y[0,5,132.5] 1
y[0,5,133.0] 1
y[0,5,133.5] 1
y[0,5,134.0] 1
y[0,5,134.5] 1
y[0,5,135.0] 1
y[0,5,135.5] 1
y[0,5,151.5] 0
y[0,5,152.0] 0
y[0,5,152.5] 1
y[0,5,153.0] 1
y[0,5,153.5] 1
y[0,5,154.0] 1
y[0,5,154.5] 1
y[0,5,155.0] 1
y[0,5,155.5] 1
y[0,5,156.0] 1
y[0,5,156.5] 1
y[0,5,157.0] 1
y[0,5,157.5] 1
y[0,5,158.0] 1
y[0,5,158.5] 1
y[0,5,159.0] 1
y[0,5,159.5] 1
y[0,6,8.0] 0
y[0,6,8.5] 0
y[0,6,9.0] 0
y[0,6,9.5] 0
y[0,6,10.0] 0
y[0,6,10.5] 0
y[0,6,11.0] 0
y[0,6,11.5] 0
y[0,6,12.0] 0
y[0,6,12.5] 0
y[0,6,13.0] 0
y[0,6,13.5] 0
y[0,6,14.0] 0
y[0,6,14.5] 0
y[0,6,15.0] 0
y[0,6,15.5] 0
y[0,6,32.0] 0
y[0,6,32.5] 0
y[0,6,33.0] 0
y[0,6,33.5] 0
y[0,6,34.0] 0
y[0,6,34.5] 0
y[0,6,35.0] 0
y[0,6,35.5] 0
y[0,6,36.0] 0
y[0,6,36.5] 0
y[0,6,37.0] 0
y[0,6,37.5] 0
y[0,6,38.0] 0
y[0,6,38.5] 0
y[0,6,39.0] 0
y[0,6,39.5] 0
y[0,6,55.5] 0
y[0,6,56.0] 0
y[0,6,56.5] 0
y[0,6,57.0] 0
y[0,6,57.5] 0
y[0,6,58.0] 0
y[0,6,58.5] 0
y[0,6,59.0] 0
y[0,6,59.5] 0
y[0,6,60.0] 0
y[0,6,60.5] 0
y[0,6,61.0] 0
y[0,6,61.5] 0
y[0,6,62.0] 0
y[0,6,62.5] 0
y[0,6,63.0] 0
y[0,6,63.5] 0
y[0,6,79.5] 0
y[0,6,80.0] 1
y[0,6,80.5] 1
y[0,6,81.0] 1
y[0,6,81.5] 1
y[0,6,82.0] 1
y[0,6,82.5] 1
y[0,6,83.0] 1
y[0,6,83.5] 1
y[0,6,84.0] 1
y[0,6,84.5] 1
y[0,6,85.0] 1
y[0,6,85.5] 1
y[0,6,86.0] 1
y[0,6,86.5] 1
y[0,6,87.0] 1
y[0,6,87.5] 1
y[0,6,103.5] 0
y[0,6,104.0] 0
y[0,6,104.5] 1
y[0,6,105.0] 1
y[0,6,105.5] 1
y[0,6,106.0] 1
y[0,6,106.5] 1
y[0,6,107.0] 1
y[0,6,107.5] 1
y[0,6,108.0] 1
y[0,6,108.5] 1
y[0,6,109.0] 1
y[0,6,109.5] 1
y[0,6,110.0] 1
y[0,6,110.5] 1
y[0,6,111.0] 1
y[0,6,111.5] 1
y[0,6,127.5] 1
y[0,6,128.0] 1
y[0,6,128.5] 1
y[0,6,129.0] 1
y[0,6,129.5] 1
y[0,6,130.0] 1
y[0,6,130.5] 1
y[0,6,131.0] 1
y[0,6,131.5] 1
y[0,6,132.0] 1
y[0,6,132.5] 1
y[0,6,133.0] 1
y[0,6,133.5] 1
y[0,6,134.0] 1
y[0,6,134.5] 1
y[0,6,135.0] 1
y[0,6,135.5] 0
y[0,6,151.5] 1
y[0,6,152.0] 1
y[0,6,152.5] 1
y[0,6,153.0] 1
y[0,6,153.5] 1
y[0,6,154.0] 1
y[0,6,154.5] 1
y[0,6,155.0] 1
y[0,6,155.5] 1
y[0,6,156.0] 1
y[0,6,156.5] 1
y[0,6,157.0] 1
y[0,6,157.5] 1
y[0,6,158.0] 1
y[0,6,158.5] 1
y[0,6,159.0] 1
y[0,6,159.5] 1
x[1,8.0,7.5] 0
x[1,8.0,8.0] 0
x[1,8.5,7.0] 0
x[1,8.5,7.5] 1
x[1,32.0,7.5] 0
x[1,32.0,8.0] 0
x[1,32.5,7.0] 1
x[1,32.5,7.5] 0
x[1,55.5,8.5] 0
x[1,56.5,7.5] 1
x[1,79.5,8.0] 0
x[1,79.5,8.5] 1
x[1,80.0,7.5] 0
x[1,80.0,8.0] 0
x[1,80.5,7.0] 0
x[1,80.5,7.5] 0
x[1,103.5,8.0] 0
x[1,103.5,8.5] 0
x[1,104.0,7.5] 0
x[1,104.0,8.0] 0
x[1,104.5,7.0] 0
x[1,104.5,7.5] 0
x[1,127.5,8.0] 0
x[1,127.5,8.5] 0
x[1,128.0,7.5] 0
x[1,128.0,8.0] 0
x[1,128.5,7.0] 0
x[1,128.5,7.5] 0
x[1,151.5,8.0] 0
x[1,151.5,8.5] 0
x[1,152.0,7.5] 0
x[1,152.0,8.0] 0
x[1,152.5,7.0] 0
x[1,152.5,7.5] 0
x[2,8.0,7.5] 0
x[2,8.0,8.0] 0
x[2,8.5,7.0] 0
x[2,8.5,7.5] 0
x[2,32.0,7.5] 0
x[2,32.0,8.0] 0
x[2,32.5,7.0] 0
x[2,32.5,7.5] 0
x[2,55.5,8.5] 0
x[2,56.5,7.5] 0
x[2,79.5,8.0] 0
x[2,79.5,8.5] 1
x[2,80.0,7.5] 0
x[2,80.0,8.0] 0
x[2,80.5,7.0] 0
x[2,80.5,7.5] 0
x[2,103.5,8.0] 0
x[2,103.5,8.5] 1
x[2,104.0,7.5] 0
x[2,104.0,8.0] 0
x[2,104.5,7.0] 0
x[2,104.5,7.5] 0
x[2,127.5,8.0] 0
x[2,127.5,8.5] 1
x[2,128.0,7.5] 0
x[2,128.0,8.0] 0
x[2,128.5,7.0] 0
x[2,128.5,7.5] 0
x[2,151.5,8.0] 1
x[2,151.5,8.5] 0
x[2,152.0,7.5] 0
x[2,152.0,8.0] 0
x[2,152.5,7.0] 0
x[2,152.5,7.5] 0
x[3,8.0,7.5] 1
x[3,8.0,8.0] 0
x[3,8.5,7.0] 0
x[3,8.5,7.5] 0
x[3,32.0,7.5] 0
x[3,32.0,8.0] 0
x[3,32.5,7.0] 0
x[3,32.5,7.5] 0
x[3,55.5,8.5] 0
x[3,56.5,7.5] 0
x[3,79.5,8.0] 0
x[3,79.5,8.5] 0
x[3,80.0,7.5] 0
x[3,80.0,8.0] 0
x[3,80.5,7.0] 0
x[3,80.5,7.5] 0
x[3,103.5,8.0] 0
x[3,103.5,8.5] 0
x[3,104.0,7.5] 1
x[3,104.0,8.0] 0
x[3,104.5,7.0] 0
x[3,104.5,7.5] 0
x[3,127.5,8.0] 0
x[3,127.5,8.5] 0
x[3,128.0,7.5] 0
x[3,128.0,8.0] 1
x[3,128.5,7.0] 0
x[3,128.5,7.5] 0
x[3,151.5,8.0] 0
x[3,151.5,8.5] 0
x[3,152.0,7.5] 0
x[3,152.0,8.0] 1
x[3,152.5,7.0] 0
x[3,152.5,7.5] 0
x[4,8.0,7.5] 0
x[4,8.0,8.0] 0
x[4,8.5,7.0] 0
x[4,8.5,7.5] 0
x[4,32.0,7.5] 0
x[4,32.0,8.0] 1
x[4,32.5,7.0] 0
x[4,32.5,7.5] 0
x[4,55.5,8.5] 1
x[4,56.5,7.5] 0
x[4,79.5,8.0] 0
x[4,79.5,8.5] 0
x[4,80.0,7.5] 0
x[4,80.0,8.0] 0
x[4,80.5,7.0] 0
x[4,80.5,7.5] 0
x[4,103.5,8.0] 0
x[4,103.5,8.5] 0
x[4,104.0,7.5] 0
x[4,104.0,8.0] 0
x[4,104.5,7.0] 0
x[4,104.5,7.5] 0
x[4,127.5,8.0] 0
x[4,127.5,8.5] 0
x[4,128.0,7.5] 0
x[4,128.0,8.0] 0
x[4,128.5,7.0] 0
x[4,128.5,7.5] 0
x[4,151.5,8.0] 0
x[4,151.5,8.5] 0
x[4,152.0,7.5] 0
x[4,152.0,8.0] 0
x[4,152.5,7.0] 0
x[4,152.5,7.5] 0
x[5,8.0,7.5] 0
x[5,8.0,8.0] 0
x[5,8.5,7.0] 0
x[5,8.5,7.5] 0
x[5,32.0,7.5] 0
x[5,32.0,8.0] 0
x[5,32.5,7.0] 0
x[5,32.5,7.5] 0
x[5,55.5,8.5] 0
x[5,56.5,7.5] 0
x[5,79.5,8.0] 0
x[5,79.5,8.5] 0
x[5,80.0,7.5] 0
x[5,80.0,8.0] 0
x[5,80.5,7.0] 1
x[5,80.5,7.5] 0
x[5,103.5,8.0] 0
x[5,103.5,8.5] 1
x[5,104.0,7.5] 0
x[5,104.0,8.0] 0
x[5,104.5,7.0] 0
x[5,104.5,7.5] 0
x[5,127.5,8.0] 0
x[5,127.5,8.5] 0
x[5,128.0,7.5] 0
x[5,128.0,8.0] 0
x[5,128.5,7.0] 0
x[5,128.5,7.5] 1
x[5,151.5,8.0] 0
x[5,151.5,8.5] 0
x[5,152.0,7.5] 0
x[5,152.0,8.0] 0
x[5,152.5,7.0] 0
x[5,152.5,7.5] 1
x[6,8.0,7.5] 0
x[6,8.0,8.0] 0
x[6,8.5,7.0] 0
x[6,8.5,7.5] 0
x[6,32.0,7.5] 0
x[6,32.0,8.0] 0
x[6,32.5,7.0] 0
x[6,32.5,7.5] 0
x[6,55.5,8.5] 0
x[6,56.5,7.5] 0
x[6,79.5,8.0] 0
x[6,79.5,8.5] 0
x[6,80.0,7.5] 0
x[6,80.0,8.0] 1
x[6,80.5,7.0] 0
x[6,80.5,7.5] 0
x[6,103.5,8.0] 0
x[6,103.5,8.5] 0
x[6,104.0,7.5] 0
x[6,104.0,8.0] 0
x[6,104.5,7.0] 0
x[6,104.5,7.5] 1
x[6,127.5,8.0] 1
x[6,127.5,8.5] 0
x[6,128.0,7.5] 0
x[6,128.0,8.0] 0
x[6,128.5,7.0] 0
x[6,128.5,7.5] 0
x[6,151.5,8.0] 0
x[6,151.5,8.5] 1
x[6,152.0,7.5] 0
x[6,152.0,8.0] 0
x[6,152.5,7.0] 0
x[6,152.5,7.5] 0
w[1,0.0,55.5] 0
w[1,0.0,56.5] 0
w[1,0.0,79.5] 0
w[1,0.0,80.0] 0
w[1,0.0,80.5] 0
w[1,15.5,40.0] 0
w[1,15.5,41.0] 0
w[1,15.5,64.0] 0
w[1,15.5,64.5] 0
w[1,15.5,65.0] 0
w[1,15.5,88.0] 0
w[1,15.5,88.5] 0
w[1,15.5,89.0] 0
w[1,16.0,39.5] 0
w[1,16.0,40.5] 0
w[1,16.0,63.5] 0
w[1,16.0,64.0] 0
w[1,16.0,64.5] 0
w[1,16.0,87.5] 0
w[1,16.0,88.0] 0
w[1,16.0,88.5] 0
w[1,39.5,40.0] 0
w[1,39.5,40.5] 0
w[1,39.5,41.0] 0
w[1,39.5,64.0] 0
w[1,39.5,64.5] 0
w[1,39.5,65.0] 0
w[1,39.5,88.0] 0
w[1,39.5,88.5] 0
w[1,39.5,89.0] 0
w[1,40.0,39.5] 0
w[1,40.0,40.0] 0
w[1,40.0,40.5] 0
w[1,40.0,63.5] 0
w[1,40.0,64.0] 0
w[1,40.0,64.5] 0
w[1,40.0,87.5] 0
w[1,40.0,88.0] 0
w[1,40.0,88.5] 0
w[1,64.0,39.5] 0
w[1,64.0,40.0] 0
w[1,64.0,40.5] 0
w[1,64.0,63.5] 0
w[1,64.0,64.0] 0
w[1,64.0,64.5] 0
w[1,64.0,87.5] 0
w[1,64.0,88.0] 0
w[1,64.0,88.5] 0
w[1,87.5,40.0] 0
w[1,87.5,40.5] 0
w[1,87.5,41.0] 0
w[1,87.5,64.0] 0
w[1,87.5,64.5] 0
w[1,87.5,65.0] 0
w[1,87.5,80.5] 0
w[1,88.0,39.5] 0
w[1,88.0,40.0] 0
w[1,88.0,40.5] 0
w[1,88.0,63.5] 0
w[1,88.0,64.0] 0
w[1,88.0,64.5] 0
w[1,88.0,80.0] 1
w[1,111.5,40.0] 0
w[1,111.5,40.5] 0
w[1,111.5,41.0] 0
w[1,111.5,56.5] 0
w[1,112.0,39.5] 0
w[1,112.0,40.0] 0
w[1,112.0,40.5] 0
w[1,112.0,56.0] 0
w[2,0.0,55.5] 0
w[2,0.0,56.5] 0
w[2,0.0,79.5] 0
w[2,0.0,80.0] 0
w[2,0.0,80.5] 0
w[2,15.5,40.0] 0
w[2,15.5,41.0] 0
w[2,15.5,64.0] 1
w[2,15.5,64.5] 0
w[2,15.5,65.0] 0
w[2,15.5,88.0] 0
w[2,15.5,88.5] 0
w[2,15.5,89.0] 0
w[2,16.0,39.5] 0
w[2,16.0,40.5] 0
w[2,16.0,63.5] 0
w[2,16.0,64.0] 0
w[2,16.0,64.5] 0
w[2,16.0,87.5] 0
w[2,16.0,88.0] 0
w[2,16.0,88.5] 0
w[2,39.5,40.0] 0
w[2,39.5,40.5] 0
w[2,39.5,41.0] 0
w[2,39.5,64.0] 0
w[2,39.5,64.5] 0
w[2,39.5,65.0] 0
w[2,39.5,88.0] 0
w[2,39.5,88.5] 0
w[2,39.5,89.0] 0
w[2,40.0,39.5] 0
w[2,40.0,40.0] 0
w[2,40.0,40.5] 0
w[2,40.0,63.5] 0
w[2,40.0,64.0] 0
w[2,40.0,64.5] 0
w[2,40.0,87.5] 0
w[2,40.0,88.0] 0
w[2,40.0,88.5] 0
w[2,64.0,39.5] 0
w[2,64.0,40.0] 0
w[2,64.0,40.5] 0
w[2,64.0,63.5] 0
w[2,64.0,64.0] 0
w[2,64.0,64.5] 0
w[2,64.0,87.5] 0
w[2,64.0,88.0] 0
w[2,64.0,88.5] 0
w[2,87.5,40.0] 0
w[2,87.5,40.5] 0
w[2,87.5,41.0] 0
w[2,87.5,64.0] 0
w[2,87.5,64.5] 0
w[2,87.5,65.0] 0
w[2,87.5,80.5] 0
w[2,88.0,39.5] 0
w[2,88.0,40.0] 0
w[2,88.0,40.5] 0
w[2,88.0,63.5] 0
w[2,88.0,64.0] 0
w[2,88.0,64.5] 0
w[2,88.0,80.0] 0
w[2,111.5,40.0] 0
w[2,111.5,40.5] 0
w[2,111.5,41.0] 0
w[2,111.5,56.5] 0
w[2,112.0,39.5] 0
w[2,112.0,40.0] 0
w[2,112.0,40.5] 0
w[2,112.0,56.0] 0
w[3,0.0,55.5] 0
w[3,0.0,56.5] 0
w[3,0.0,79.5] 0
w[3,0.0,80.0] 0
w[3,0.0,80.5] 0
w[3,15.5,40.0] 0
w[3,15.5,41.0] 0
w[3,15.5,64.0] 0
w[3,15.5,64.5] 0
w[3,15.5,65.0] 0
w[3,15.5,88.0] 1
w[3,15.5,88.5] 0
w[3,15.5,89.0] 0
w[3,16.0,39.5] 0
w[3,16.0,40.5] 0
w[3,16.0,63.5] 0
w[3,16.0,64.0] 0
w[3,16.0,64.5] 0
w[3,16.0,87.5] 0
w[3,16.0,88.0] 0
w[3,16.0,88.5] 0
w[3,39.5,40.0] 0
w[3,39.5,40.5] 0
w[3,39.5,41.0] 0
w[3,39.5,64.0] 0
w[3,39.5,64.5] 0
w[3,39.5,65.0] 0
w[3,39.5,88.0] 0
w[3,39.5,88.5] 0
w[3,39.5,89.0] 0
w[3,40.0,39.5] 0
w[3,40.0,40.0] 0
w[3,40.0,40.5] 0
w[3,40.0,63.5] 0
w[3,40.0,64.0] 0
w[3,40.0,64.5] 0
w[3,40.0,87.5] 0
w[3,40.0,88.0] 0
w[3,40.0,88.5] 0
w[3,64.0,39.5] 0
w[3,64.0,40.0] 0
w[3,64.0,40.5] 0
w[3,64.0,63.5] 0
w[3,64.0,64.0] 0
w[3,64.0,64.5] 0
w[3,64.0,87.5] 0
w[3,64.0,88.0] 0
w[3,64.0,88.5] 0
w[3,87.5,40.0] 0
w[3,87.5,40.5] 0
w[3,87.5,41.0] 0
w[3,87.5,64.0] 0
w[3,87.5,64.5] 0
w[3,87.5,65.0] 0
w[3,87.5,80.5] 0
w[3,88.0,39.5] 0
w[3,88.0,40.0] 0
w[3,88.0,40.5] 0
w[3,88.0,63.5] 0
w[3,88.0,64.0] 0
w[3,88.0,64.5] 0
w[3,88.0,80.0] 0
w[3,111.5,40.0] 0
w[3,111.5,40.5] 0
w[3,111.5,41.0] 0
w[3,111.5,56.5] 0
w[3,112.0,39.5] 0
w[3,112.0,40.0] 0
w[3,112.0,40.5] 0
w[3,112.0,56.0] 0
w[4,0.0,55.5] 0
w[4,0.0,56.5] 0
w[4,0.0,79.5] 0
w[4,0.0,80.0] 0
w[4,0.0,80.5] 0
w[4,15.5,40.0] 0
w[4,15.5,41.0] 0
w[4,15.5,64.0] 0
w[4,15.5,64.5] 0
w[4,15.5,65.0] 0
w[4,15.5,88.0] 0
w[4,15.5,88.5] 0
w[4,15.5,89.0] 0
w[4,16.0,39.5] 0
w[4,16.0,40.5] 0
w[4,16.0,63.5] 0
w[4,16.0,64.0] 0
w[4,16.0,64.5] 0
w[4,16.0,87.5] 0
w[4,16.0,88.0] 0
w[4,16.0,88.5] 0
w[4,39.5,40.0] 0
w[4,39.5,40.5] 0
w[4,39.5,41.0] 0
w[4,39.5,64.0] 0
w[4,39.5,64.5] 0
w[4,39.5,65.0] 0
w[4,39.5,88.0] 0
w[4,39.5,88.5] 0
w[4,39.5,89.0] 0
w[4,40.0,39.5] 0
w[4,40.0,40.0] 0
w[4,40.0,40.5] 0
w[4,40.0,63.5] 0
w[4,40.0,64.0] 0
w[4,40.0,64.5] 0
w[4,40.0,87.5] 0
w[4,40.0,88.0] 0
w[4,40.0,88.5] 0
w[4,64.0,39.5] 0
w[4,64.0,40.0] 0
w[4,64.0,40.5] 0
w[4,64.0,63.5] 0
w[4,64.0,64.0] 0
w[4,64.0,64.5] 0
w[4,64.0,87.5] 0
w[4,64.0,88.0] 0
w[4,64.0,88.5] 0
w[4,87.5,40.0] 0
w[4,87.5,40.5] 0
w[4,87.5,41.0] 0
w[4,87.5,64.0] 0
w[4,87.5,64.5] 0
w[4,87.5,65.0] 0
w[4,87.5,80.5] 0
w[4,88.0,39.5] 0
w[4,88.0,40.0] 0
w[4,88.0,40.5] 0
w[4,88.0,63.5] 0
w[4,88.0,64.0] 0
w[4,88.0,64.5] 0
w[4,88.0,80.0] 1
w[4,111.5,40.0] 0
w[4,111.5,40.5] 0
w[4,111.5,41.0] 0
w[4,111.5,56.5] 0
w[4,112.0,39.5] 0
w[4,112.0,40.0] 0
w[4,112.0,40.5] 0
w[4,112.0,56.0] 0
w[5,0.0,55.5] 0
w[5,0.0,56.5] 0
w[5,0.0,79.5] 1
w[5,0.0,80.0] 0
w[5,0.0,80.5] 0
w[5,15.5,40.0] 0
w[5,15.5,41.0] 0
w[5,15.5,64.0] 0
w[5,15.5,64.5] 0
w[5,15.5,65.0] 0
w[5,15.5,88.0] 0
w[5,15.5,88.5] 0
w[5,15.5,89.0] 0
w[5,16.0,39.5] 0
w[5,16.0,40.5] 0
w[5,16.0,63.5] 0
w[5,16.0,64.0] 0
w[5,16.0,64.5] 0
w[5,16.0,87.5] 0
w[5,16.0,88.0] 0
w[5,16.0,88.5] 0
w[5,39.5,40.0] 0
w[5,39.5,40.5] 0
w[5,39.5,41.0] 0
w[5,39.5,64.0] 0
w[5,39.5,64.5] 0
w[5,39.5,65.0] 0
w[5,39.5,88.0] 0
w[5,39.5,88.5] 0
w[5,39.5,89.0] 0
w[5,40.0,39.5] 0
w[5,40.0,40.0] 0
w[5,40.0,40.5] 0
w[5,40.0,63.5] 0
w[5,40.0,64.0] 0
w[5,40.0,64.5] 0
w[5,40.0,87.5] 0
w[5,40.0,88.0] 0
w[5,40.0,88.5] 0
w[5,64.0,39.5] 0
w[5,64.0,40.0] 0
w[5,64.0,40.5] 0
w[5,64.0,63.5] 0
w[5,64.0,64.0] 0
w[5,64.0,64.5] 0
w[5,64.0,87.5] 0
w[5,64.0,88.0] 0
w[5,64.0,88.5] 0
w[5,87.5,40.0] 0
w[5,87.5,40.5] 0
w[5,87.5,41.0] 0
w[5,87.5,64.0] 0
w[5,87.5,64.5] 0
w[5,87.5,65.0] 0
w[5,87.5,80.5] 0
w[5,88.0,39.5] 0
w[5,88.0,40.0] 0
w[5,88.0,40.5] 0
w[5,88.0,63.5] 0
w[5,88.0,64.0] 0
w[5,88.0,64.5] 0
w[5,88.0,80.0] 0
w[5,111.5,40.0] 0
w[5,111.5,40.5] 0
w[5,111.5,41.0] 0
w[5,111.5,56.5] 0
w[5,112.0,39.5] 0
w[5,112.0,40.0] 0
w[5,112.0,40.5] 0
w[5,112.0,56.0] 0
w[6,0.0,55.5] 0
w[6,0.0,56.5] 0
w[6,0.0,79.5] 1
w[6,0.0,80.0] 0
w[6,0.0,80.5] 0
w[6,15.5,40.0] 0
w[6,15.5,41.0] 0
w[6,15.5,64.0] 0
w[6,15.5,64.5] 0
w[6,15.5,65.0] 0
w[6,15.5,88.0] 0
w[6,15.5,88.5] 0
w[6,15.5,89.0] 0
w[6,16.0,39.5] 0
w[6,16.0,40.5] 0
w[6,16.0,63.5] 0
w[6,16.0,64.0] 0
w[6,16.0,64.5] 0
w[6,16.0,87.5] 0
w[6,16.0,88.0] 0
w[6,16.0,88.5] 0
w[6,39.5,40.0] 0
w[6,39.5,40.5] 0
w[6,39.5,41.0] 0
w[6,39.5,64.0] 0
w[6,39.5,64.5] 0
w[6,39.5,65.0] 0
w[6,39.5,88.0] 0
w[6,39.5,88.5] 0
w[6,39.5,89.0] 0
w[6,40.0,39.5] 0
w[6,40.0,40.0] 0
w[6,40.0,40.5] 0
w[6,40.0,63.5] 0
w[6,40.0,64.0] 0
w[6,40.0,64.5] 0
w[6,40.0,87.5] 0
w[6,40.0,88.0] 0
w[6,40.0,88.5] 0
w[6,64.0,39.5] 0
w[6,64.0,40.0] 0
w[6,64.0,40.5] 0
w[6,64.0,63.5] 0
w[6,64.0,64.0] 0
w[6,64.0,64.5] 0
w[6,64.0,87.5] 0
w[6,64.0,88.0] 0
w[6,64.0,88.5] 0
w[6,87.5,40.0] 0
w[6,87.5,40.5] 0
w[6,87.5,41.0] 0
w[6,87.5,64.0] 0
w[6,87.5,64.5] 0
w[6,87.5,65.0] 0
w[6,87.5,80.5] 0
w[6,88.0,39.5] 0
w[6,88.0,40.0] 0
w[6,88.0,40.5] 0
w[6,88.0,63.5] 0
w[6,88.0,64.0] 0
w[6,88.0,64.5] 0
w[6,88.0,80.0] 0
w[6,111.5,40.0] 0
w[6,111.5,40.5] 0
w[6,111.5,41.0] 0
w[6,111.5,56.5] 0
w[6,112.0,39.5] 0
w[6,112.0,40.0] 0
w[6,112.0,40.5] 0
w[6,112.0,56.0] 0
mu[0,8.0] 0
mu[0,8.5] 0
mu[0,9.0] 0
mu[0,9.5] 0
mu[0,10.0] 0
mu[0,10.5] 0
mu[0,11.0] 0
mu[0,11.5] 0
mu[0,12.0] 0
mu[0,12.5] 0
mu[0,13.0] 0
mu[0,13.5] 0
mu[0,14.0] 0
mu[0,14.5] 0
mu[0,15.0] 0
mu[0,15.5] 0
mu[0,32.0] 0
mu[0,32.5] 0
mu[0,33.0] 0
mu[0,33.5] 0
mu[0,34.0] 0
mu[0,34.5] 0
mu[0,35.0] 0
mu[0,35.5] 0
mu[0,36.0] 0
mu[0,36.5] 0
mu[0,37.0] 0
mu[0,37.5] 0
mu[0,38.0] 0
mu[0,38.5] 0
mu[0,39.0] 0
mu[0,39.5] 0
mu[0,55.5] 0
mu[0,56.0] 0
mu[0,56.5] 0
mu[0,57.0] 0
mu[0,57.5] 0
mu[0,58.0] 0
mu[0,58.5] 0
mu[0,59.0] 0
mu[0,59.5] 0
mu[0,60.0] 0
mu[0,60.5] 0
mu[0,61.0] 0
mu[0,61.5] 0
mu[0,62.0] 0
mu[0,62.5] 0
mu[0,63.0] 0
mu[0,63.5] 0
mu[0,79.5] 0
mu[0,80.0] 0
mu[0,80.5] 0
mu[0,81.0] 0
mu[0,81.5] 0
mu[0,82.0] 0
mu[0,82.5] 0
mu[0,83.0] 0
mu[0,83.5] 0
mu[0,84.0] 0
mu[0,84.5] 0
mu[0,85.0] 0
mu[0,85.5] 0
mu[0,86.0] 0
mu[0,86.5] 0
mu[0,87.0] 0
mu[0,87.5] 0
mu[0,103.5] 0
mu[0,104.0] 0
mu[0,104.5] 0
mu[0,105.0] 0
mu[0,105.5] 0
mu[0,106.0] 0
mu[0,106.5] 0
mu[0,107.0] 0
mu[0,107.5] 0
mu[0,108.0] 0
mu[0,108.5] 0
mu[0,109.0] 0
mu[0,109.5] 0
mu[0,110.0] 0
mu[0,110.5] 0
mu[0,111.0] 0
mu[0,111.5] 0
mu[0,127.5] 0
mu[0,128.0] 0
mu[0,128.5] 0
mu[0,129.0] 0
mu[0,129.5] 0
mu[0,130.0] 0
mu[0,130.5] 0
mu[0,131.0] 0
mu[0,131.5] 0
mu[0,132.0] 0
mu[0,132.5] 0
mu[0,133.0] 0
mu[0,133.5] 0
mu[0,134.0] 0
mu[0,134.5] 0
mu[0,135.0] 0
mu[0,135.5] 0
mu[0,151.5] 0
mu[0,152.0] 0
mu[0,152.5] 0
mu[0,153.0] 0
mu[0,153.5] 0
mu[0,154.0] 0
mu[0,154.5] 0
mu[0,155.0] 0
mu[0,155.5] 0
mu[0,156.0] 0
mu[0,156.5] 0
mu[0,157.0] 0
mu[0,157.5] 0
mu[0,158.0] 0
mu[0,158.5] 0
mu[0,159.0] 0
mu[0,159.5] 0
delta_plus[0,8.0] 0
delta_plus[0,8.5] 0
delta_plus[0,9.0] 0
delta_plus[0,9.5] 0
delta_plus[0,10.0] 0
delta_plus[0,10.5] 0
delta_plus[0,11.0] 0
delta_plus[0,11.5] 0
delta_plus[0,12.0] 0
delta_plus[0,12.5] 0
delta_plus[0,13.0] 0
delta_plus[0,13.5] 0
delta_plus[0,14.0] 0
delta_plus[0,14.5] 0
delta_plus[0,15.0] 0
delta_plus[0,15.5] 0
delta_plus[0,32.0] 0
delta_plus[0,32.5] 0
delta_plus[0,33.0] 0
delta_plus[0,33.5] 0
delta_plus[0,34.0] 0
delta_plus[0,34.5] 0
delta_plus[0,35.0] 0
delta_plus[0,35.5] 0
delta_plus[0,36.0] 0
delta_plus[0,36.5] 0
delta_plus[0,37.0] 0
delta_plus[0,37.5] 0
delta_plus[0,38.0] 0
delta_plus[0,38.5] 0
delta_plus[0,39.0] 0
delta_plus[0,39.5] 0
delta_plus[0,55.5] 0
delta_plus[0,56.0] 0
delta_plus[0,56.5] 0
delta_plus[0,57.0] 0
delta_plus[0,57.5] 0
delta_plus[0,58.0] 0
delta_plus[0,58.5] 0
delta_plus[0,59.0] 0
delta_plus[0,59.5] 0
delta_plus[0,60.0] 0
delta_plus[0,60.5] 0
delta_plus[0,61.0] 0
delta_plus[0,61.5] 0
delta_plus[0,62.0] 0
delta_plus[0,62.5] 0
delta_plus[0,63.0] 0
delta_plus[0,63.5] 0
delta_plus[0,79.5] 0
delta_plus[0,80.0] 0
delta_plus[0,80.5] 0
delta_plus[0,81.0] 0
delta_plus[0,81.5] 0
delta_plus[0,82.0] 0
delta_plus[0,82.5] 0
delta_plus[0,83.0] 0
delta_plus[0,83.5] 0
delta_plus[0,84.0] 0
delta_plus[0,84.5] 0
delta_plus[0,85.0] 0
delta_plus[0,85.5] 0
delta_plus[0,86.0] 0
delta_plus[0,86.5] 0
delta_plus[0,87.0] 0
delta_plus[0,87.5] 0
delta_plus[0,103.5] 0
delta_plus[0,104.0] 0
delta_plus[0,104.5] 0
delta_plus[0,105.0] 0
delta_plus[0,105.5] 0
delta_plus[0,106.0] 0
delta_plus[0,106.5] 0
delta_plus[0,107.0] 0
delta_plus[0,107.5] 0
delta_plus[0,108.0] 0
delta_plus[0,108.5] 0
delta_plus[0,109.0] 0
delta_plus[0,109.5] 0
delta_plus[0,110.0] 0
delta_plus[0,110.5] 0
delta_plus[0,111.0] 0
delta_plus[0,111.5] 0
delta_plus[0,127.5] 0
delta_plus[0,128.0] 0
delta_plus[0,128.5] 0
delta_plus[0,129.0] 0
delta_plus[0,129.5] 0
delta_plus[0,130.0] 0
delta_plus[0,130.5] 0
delta_plus[0,131.0] 0
delta_plus[0,131.5] 0
delta_plus[0,132.0] 0
delta_plus[0,132.5] 0
delta_plus[0,133.0] 0
delta_plus[0,133.5] 0
delta_plus[0,134.0] 0
delta_plus[0,134.5] 0
delta_plus[0,135.0] 0
delta_plus[0,135.5] 0
delta_plus[0,151.5] 0
delta_plus[0,152.0] 0
delta_plus[0,152.5] 0
delta_plus[0,153.0] 0
delta_plus[0,153.5] 0
delta_plus[0,154.0] 0
delta_plus[0,154.5] 0
delta_plus[0,155.0] 0
delta_plus[0,155.5] 0
delta_plus[0,156.0] 0
delta_plus[0,156.5] 0
delta_plus[0,157.0] 0
delta_plus[0,157.5] 0
delta_plus[0,158.0] 0
delta_plus[0,158.5] 0
delta_plus[0,159.0] 0
delta_plus[0,159.5] 0
delta_minus[0,8.0] 0
delta_minus[0,8.5] 0
delta_minus[0,9.0] 0
delta_minus[0,9.5] 0
delta_minus[0,10.0] 0
delta_minus[0,10.5] 0
delta_minus[0,11.0] 0
delta_minus[0,11.5] 0
delta_minus[0,12.0] 0
delta_minus[0,12.5] 0
delta_minus[0,13.0] 0
delta_minus[0,13.5] 0
delta_minus[0,14.0] 0
delta_minus[0,14.5] 0
delta_minus[0,15.0] 0
delta_minus[0,15.5] 0
delta_minus[0,32.0] 0
delta_minus[0,32.5] 0
delta_minus[0,33.0] 0
delta_minus[0,33.5] 0
delta_minus[0,34.0] 0
delta_minus[0,34.5] 0
delta_minus[0,35.0] 0
delta_minus[0,35.5] 0
delta_minus[0,36.0] 0
delta_minus[0,36.5] 0
delta_minus[0,37.0] 0
delta_minus[0,37.5] 0
delta_minus[0,38.0] 0
delta_minus[0,38.5] 0
delta_minus[0,39.0] 0
delta_minus[0,39.5] 0
delta_minus[0,55.5] 0
delta_minus[0,56.0] 0
delta_minus[0,56.5] 0
delta_minus[0,57.0] 0
delta_minus[0,57.5] 0
delta_minus[0,58.0] 0
delta_minus[0,58.5] 0
delta_minus[0,59.0] 0
delta_minus[0,59.5] 0
delta_minus[0,60.0] 0
delta_minus[0,60.5] 0
delta_minus[0,61.0] 0
delta_minus[0,61.5] 0
delta_minus[0,62.0] 0
delta_minus[0,62.5] 0
delta_minus[0,63.0] 0
delta_minus[0,63.5] 0
delta_minus[0,79.5] 0
delta_minus[0,80.0] 0
delta_minus[0,80.5] 0
delta_minus[0,81.0] 0
delta_minus[0,81.5] 0
delta_minus[0,82.0] 0
delta_minus[0,82.5] 0
delta_minus[0,83.0] 0
delta_minus[0,83.5] 0
delta_minus[0,84.0] 0
delta_minus[0,84.5] 0
delta_minus[0,85.0] 0
delta_minus[0,85.5] 0
delta_minus[0,86.0] 0
delta_minus[0,86.5] 0
delta_minus[0,87.0] 0
delta_minus[0,87.5] 0
delta_minus[0,103.5] 0
delta_minus[0,104.0] 0
delta_minus[0,104.5] 0
delta_minus[0,105.0] 0
delta_minus[0,105.5] 0
delta_minus[0,106.0] 0
delta_minus[0,106.5] 0
delta_minus[0,107.0] 0
delta_minus[0,107.5] 0
delta_minus[0,108.0] 0
delta_minus[0,108.5] 0
delta_minus[0,109.0] 0
delta_minus[0,109.5] 0
delta_minus[0,110.0] 0
delta_minus[0,110.5] 0
delta_minus[0,111.0] 0
delta_minus[0,111.5] 0
delta_minus[0,127.5] 0
delta_minus[0,128.0] 0
delta_minus[0,128.5] 0
delta_minus[0,129.0] 0
delta_minus[0,129.5] 0
delta_minus[0,130.0] 0
delta_minus[0,130.5] 0
delta_minus[0,131.0] 0
delta_minus[0,131.5] 0
delta_minus[0,132.0] 0
delta_minus[0,132.5] 0
delta_minus[0,133.0] 0
delta_minus[0,133.5] 0
delta_minus[0,134.0] 0
delta_minus[0,134.5] 0
delta_minus[0,135.0] 0
delta_minus[0,135.5] 0
delta_minus[0,151.5] 0
delta_minus[0,152.0] 0
delta_minus[0,152.5] 0
delta_minus[0,153.0] 0
delta_minus[0,153.5] 0
delta_minus[0,154.0] 0
delta_minus[0,154.5] 0
delta_minus[0,155.0] 0
delta_minus[0,155.5] 0
delta_minus[0,156.0] 0
delta_minus[0,156.5] 0
delta_minus[0,157.0] 0
delta_minus[0,157.5] 0
delta_minus[0,158.0] 0
delta_minus[0,158.5] 0
delta_minus[0,159.0] 0
delta_minus[0,159.5] 0
lambda[1] 9.5
lambda[2] 0.25
lambda[3] 2.93
lambda[4] 3.5
lambda[5] 7
lambda[6] 8
rho_sat[1,5] 0
rho_sat[2,5] 0
rho_sat[3,5] 0
rho_sat[4,5] 0
rho_sat[5,5] 0
rho_sat[6,5] 0
rho_sun[1,6] 0
rho_sun[2,6] 0
rho_sun[3,6] 0
rho_sun[4,6] 0
rho_sun[5,6] 0
rho_sun[6,6] 0
q_iso_off[1,0] 0
q_iso_off[1,1] 0
q_iso_off[1,2] 0
q_iso_off[1,3] 0
q_iso_off[1,4] 0
q_iso_off[1,5] 0
q_iso_off[1,6] 0
q_iso_off[2,0] 0
q_iso_off[2,1] 0
q_iso_off[2,2] 0
q_iso_off[2,3] 0
q_iso_off[2,4] 0
q_iso_off[2,5] 0
q_iso_off[2,6] 0
q_iso_off[3,0] 0
q_iso_off[3,1] 0
q_iso_off[3,2] 0
q_iso_off[3,3] 0
q_iso_off[3,4] 0
q_iso_off[3,5] 0
q_iso_off[3,6] 0
q_iso_off[4,0] 0
q_iso_off[4,1] 0
q_iso_off[4,2] 0
q_iso_off[4,3] 0
q_iso_off[4,4] 0
q_iso_off[4,5] 0
q_iso_off[4,6] 0
q_iso_off[5,0] 0
q_iso_off[5,1] 0
q_iso_off[5,2] 0
q_iso_off[5,3] 0
q_iso_off[5,4] 0
q_iso_off[5,5] 0
q_iso_off[5,6] 0
q_iso_off[6,0] 0
q_iso_off[6,1] 0
q_iso_off[6,2] 0
q_iso_off[6,3] 0
q_iso_off[6,4] 0
q_iso_off[6,5] 0
q_iso_off[6,6] 0
q_iso_work[1,0] 0
q_iso_work[1,1] 0
q_iso_work[1,2] 0
q_iso_work[1,3] 0
q_iso_work[1,4] 0
q_iso_work[1,5] 0
q_iso_work[1,6] 0
q_iso_work[2,0] 0
q_iso_work[2,1] 0
q_iso_work[2,2] 0
q_iso_work[2,3] 0
q_iso_work[2,4] 0
q_iso_work[2,5] 0
q_iso_work[2,6] 0
q_iso_work[3,0] 0
q_iso_work[3,1] 0
q_iso_work[3,2] 0
q_iso_work[3,3] 0
q_iso_work[3,4] 0
q_iso_work[3,5] 0
q_iso_work[3,6] 0
q_iso_work[4,0] 0
q_iso_work[4,1] 0
q_iso_work[4,2] 0
q_iso_work[4,3] 0
q_iso_work[4,4] 0
q_iso_work[4,5] 0
q_iso_work[4,6] 0
q_iso_work[5,0] 0
q_iso_work[5,1] 0
q_iso_work[5,2] 0
q_iso_work[5,3] 0
q_iso_work[5,4] 0
q_iso_work[5,5] 0
q_iso_work[5,6] 0
q_iso_work[6,0] 0
q_iso_work[6,1] 0
q_iso_work[6,2] 0
q_iso_work[6,3] 0
q_iso_work[6,4] 0
q_iso_work[6,5] 0
q_iso_work[6,6] 0
q_con[1,0] 0
q_con[1,1] 0
q_con[1,2] 0
q_con[1,3] 0
q_con[1,4] 0
q_con[1,5] 0
q_con[1,6] 0
q_con[2,0] 0
q_con[2,1] 0
q_con[2,2] 0
q_con[2,3] 0
q_con[2,4] 0
q_con[2,5] 0
q_con[2,6] 0
q_con[3,0] 0
q_con[3,1] 0
q_con[3,2] 0
q_con[3,3] 0
q_con[3,4] 0
q_con[3,5] 0
q_con[3,6] 0
q_con[4,0] 0
q_con[4,1] 0
q_con[4,2] 0
q_con[4,3] 0
q_con[4,4] 0
q_con[4,5] 0
q_con[4,6] 0
q_con[5,0] 0
q_con[5,1] 0
q_con[5,2] 0
q_con[5,3] 0
q_con[5,4] 0
q_con[5,5] 0
q_con[5,6] 0
q_con[6,0] 0
q_con[6,1] 0
q_con[6,2] 0
q_con[6,3] 0
q_con[6,4] 0
q_con[6,5] 0
q_con[6,6] 0
gamma[1,0] 1
gamma[1,1] 1
gamma[1,2] 1
gamma[1,3] 1
gamma[1,4] 0
gamma[1,5] 0
gamma[1,6] 0
gamma[2,0] 0
gamma[2,1] 0
gamma[2,2] 0
gamma[2,3] 1
gamma[2,4] 1
gamma[2,5] 1
gamma[2,6] 1
gamma[3,0] 1
gamma[3,1] 0
gamma[3,2] 0
gamma[3,3] 0
gamma[3,4] 1
gamma[3,5] 1
gamma[3,6] 1
gamma[4,0] 0
gamma[4,1] 1
gamma[4,2] 1
gamma[4,3] 0
gamma[4,4] 0
gamma[4,5] 0
gamma[4,6] 0
gamma[5,0] 0
gamma[5,1] 0
gamma[5,2] 0
gamma[5,3] 1
gamma[5,4] 1
gamma[5,5] 1
gamma[5,6] 1
gamma[6,0] 0
gamma[6,1] 0
gamma[6,2] 0
gamma[6,3] 1
gamma[6,4] 1
gamma[6,5] 1
gamma[6,6] 1
f_plus[1] 2.9000000000000004e+01
f_plus[2] 3.0583014048531290e+01
f_plus[3] 3.3415394866669232e+01
f_plus[4] 29
f_plus[5] 2.9366666666666667e+01
f_plus[6] 29.25
f_minus[1] 0
f_minus[2] 0
f_minus[3] 0
f_minus[4] 0
f_minus[5] 0
f_minus[6] 0
g_plus 29
g_minus 0
